Route #1: 1 7 11 42 53 57 14 62 33 9 47 64 41 37 8 28 1
Route #2: 1 39 19 23 13 44 29 27 1
Route #3: 1 26 30 16 12 58 31 10 1
Route #4: 1 34 49 63 1
Route #5: 1 50 56 60 32 51 40 45 22 36 1
Route #6: 1 25 61 17 48 3 59 24 38 1
Route #7: 1 55 6 5 35 21 1
Route #8: 1 52 20 43 4 54 1
Route #9: 1 18 2 15 46 1
cost 1677.3007861295014